p cnf 16 48
4 -14 -16 0
3 -8 16 0
-2 7 16 0
-2 7 -8 0
-6 8 -14 0
-5 -6 -13 0
-11 14 -16 0
7 -14 16 0
2 4 -5 0
4 -9 14 0
4 5 -13 0
-2 -7 11 0
-1 -3 -16 0
-6 -10 -11 0
-4 5 -8 0
2 -8 14 0
2 11 14 0
5 -6 -7 0
9 11 15 0
3 -7 13 0
-2 6 7 0
-2 8 -14 0
4 -12 -14 0
7 -13 15 0
-4 -10 14 0
5 13 -14 0
-2 -13 -16 0
2 -7 -15 0
-3 5 6 0
13 14 16 0
10 12 -14 0
-5 -9 -14 0
9 14 -16 0
4 13 -14 0
4 -12 14 0
-3 -5 -11 0
3 8 14 0
10 -12 14 0
-1 -8 12 0
3 -11 -16 0
-6 -11 12 0
-2 7 9 0
-4 8 -12 0
-4 8 13 0
-2 -7 -10 0
-2 -11 -12 0
-7 -14 15 0
10 13 -14 0
